Instance name: /home/cuong/CLionProjects/uMV-FSTSP/Murray_Chu_2015_test_data/FSTSP/FSTSP_10_customer_problems/20140810T123443v11
Write arg val: 1

drone speed: 0.6 miles/minute
uav non-eligible customer: 4 8 
Printing tau:
0 13.7617 11.155 18.3489 20.448 15.6899 15.6816 15.9793 10.6796 13.1667 9.91531 0 
13.7617 0 8.59672 16.5872 14.8463 1.92825 1.9199 7.49765 3.32128 11.405 7.04299 13.7617 
11.155 8.59672 0 25.184 23.443 8.42508 9.39342 16.0944 11.7546 20.0018 15.6397 11.155 
18.3489 16.5872 25.184 0 20.0769 16.7589 15.7905 15.6083 13.4294 5.1822 10.0243 18.3489 
20.448 14.8463 23.443 20.0769 0 15.0179 14.0496 7.34864 11.6884 17.2947 10.5327 20.448 
15.6899 1.92825 8.42508 16.7589 15.0179 0 0.968346 7.66929 5.01036 12.5367 7.21463 15.6899 
15.6816 1.9199 9.39342 15.7905 14.0496 0.968346 0 6.70095 5.00201 12.5283 6.24629 15.6816 
15.9793 7.49765 16.0944 15.6083 7.34864 7.66929 6.70095 0 5.29976 12.8261 6.06403 15.9793 
10.6796 3.32128 11.7546 13.4294 11.6884 5.01036 5.00201 5.29976 0 8.24716 3.8851 10.6796 
13.1667 11.405 20.0018 5.1822 17.2947 12.5367 12.5283 12.8261 8.24716 0 6.76206 13.1667 
9.91531 7.04299 15.6397 10.0243 10.5327 7.21463 6.24629 6.06403 3.8851 6.76206 0 9.91531 
0 0 0 0 0 0 0 0 0 0 0 0 
Printing tau_prime:
0 7.00743 6.60767 9.26951 13.3051 7.96521 8.02512 9.32786 5.9388 6.83826 6.69747 0 
7.00743 0 4.53721 10.7671 8.22389 0.977764 1.04987 3.94906 2.22874 7.86711 4.05316 7.00743 
6.60767 4.53721 0 13.8369 12.7369 4.83259 5.26653 8.48623 5.94183 10.8808 7.92402 6.60767 
9.26951 10.7671 13.8369 0 10.1784 11.4679 11.1089 9.12274 8.55077 2.97077 6.81733 9.26951 
13.3051 8.22389 12.7369 10.1784 0 7.95679 7.49335 4.34398 7.69376 8.9064 6.62071 13.3051 
7.96521 0.977764 4.83259 11.4679 7.95679 0 0.489107 3.87634 3.03842 8.61874 4.66744 7.96521 
8.02512 1.04987 5.26653 11.1089 7.49335 0.489107 0 3.38783 2.79373 8.29151 4.29363 8.02512 
9.32786 3.94906 8.48623 9.12274 4.34398 3.87634 3.38783 0 3.45972 6.7721 3.0714 9.32786 
5.9388 2.22874 5.94183 8.55077 7.69376 3.03842 2.79373 3.45972 0 5.63927 1.99988 5.9388 
6.83826 7.86711 10.8808 2.97077 8.9064 8.61874 8.29151 6.7721 5.63927 0 4.06431 6.83826 
6.69747 4.05316 7.92402 6.81733 6.62071 4.66744 4.29363 3.0714 1.99988 4.06431 0 6.69747 
0 0 0 0 0 0 0 0 0 0 0 0 
Warning:  Output names have been modified due to duplicate names or characters invalid in LP format.
Version identifier: 22.1.1.0 | 2022-11-28 | 9160aff4d
CPXPARAM_Emphasis_MIP                            2
CPXPARAM_MIP_Tolerances_Integrality              0
Tried aggregator 2 times.
MIP Presolve eliminated 713 rows and 1468 columns.
MIP Presolve modified 2207 coefficients.
Aggregator did 24 substitutions.
Reduced MIP has 1009 rows, 3284 columns, and 31689 nonzeros.
Reduced MIP has 3263 binaries, 0 generals, 0 SOSs, and 0 indicators.
Presolve time = 0.03 sec. (50.22 ticks)
Probing fixed 26 vars, tightened 0 bounds.
Probing time = 0.03 sec. (66.08 ticks)
Tried aggregator 2 times.
Detecting symmetries...
MIP Presolve eliminated 21 rows and 26 columns.
MIP Presolve modified 121 coefficients.
Aggregator did 2 substitutions.
Reduced MIP has 986 rows, 3256 columns, and 31394 nonzeros.
Reduced MIP has 3235 binaries, 0 generals, 0 SOSs, and 0 indicators.
Presolve time = 0.01 sec. (21.69 ticks)
Probing time = 0.01 sec. (6.81 ticks)
Clique table members: 11965.
MIP emphasis: optimality.
MIP search method: dynamic search.
Parallel mode: deterministic, using up to 20 threads.
Root relaxation solution time = 0.10 sec. (155.05 ticks)

        Nodes                                         Cuts/
   Node  Left     Objective  IInf  Best Integer    Best Bound    ItCnt     Gap

      0     0       51.1741   181                     51.1741       19         
*     0+    0                           62.0347       51.1741            17.51%
      0     0       52.1741   117       62.0347      Cuts: 10     1198   15.90%
      0     0       52.4945   124       62.0347      Cuts: 14     2044   14.98%
      0     0       52.7481   147       62.0347      Cuts: 22     3222   14.97%
*     0+    0                           59.3190       52.7481            11.08%
      0     0  -1.00000e+75     0       59.3190       52.7481     3222   11.08%
      0     0       52.8517   164       59.3190      Cuts: 26     3740   10.90%
      0     0       53.0147   121       59.3190      Cuts: 27     4489   10.63%
Detecting symmetries...
*     0+    0                           57.3823       53.0147             7.61%
      0     0       53.0236   183       57.3823      Cuts: 32     5114    7.36%
Detecting symmetries...

Repeating presolve.
Tried aggregator 2 times.
MIP Presolve eliminated 89 rows and 967 columns.
MIP Presolve modified 384 coefficients.
Aggregator did 25 substitutions.
Reduced MIP has 872 rows, 2264 columns, and 23293 nonzeros.
Reduced MIP has 2243 binaries, 0 generals, 0 SOSs, and 0 indicators.
Presolve time = 0.01 sec. (25.14 ticks)
Probing fixed 30 vars, tightened 0 bounds.
Probing changed sense of 1 constraints.
Probing time = 0.04 sec. (85.37 ticks)
Tried aggregator 2 times.
MIP Presolve eliminated 11 rows and 30 columns.
MIP Presolve modified 100 coefficients.
Aggregator did 2 substitutions.
Reduced MIP has 859 rows, 2232 columns, and 22826 nonzeros.
Reduced MIP has 2211 binaries, 0 generals, 0 SOSs, and 0 indicators.
Presolve time = 0.01 sec. (16.02 ticks)
Probing time = 0.00 sec. (6.73 ticks)
Tried aggregator 2 times.
Detecting symmetries...
MIP Presolve eliminated 5 rows and 0 columns.
MIP Presolve modified 86 coefficients.
Aggregator did 2 substitutions.
Reduced MIP has 852 rows, 2230 columns, and 22817 nonzeros.
Reduced MIP has 2209 binaries, 0 generals, 0 SOSs, and 0 indicators.
Presolve time = 0.01 sec. (14.39 ticks)
Represolve time = 0.10 sec. (175.90 ticks)
Probing time = 0.00 sec. (6.73 ticks)
Clique table members: 11139.
MIP emphasis: optimality.
MIP search method: dynamic search.
Parallel mode: deterministic, using up to 20 threads.
Root relaxation solution time = 0.07 sec. (155.01 ticks)

        Nodes                                         Cuts/
   Node  Left     Objective  IInf  Best Integer    Best Bound    ItCnt     Gap

*     0+    0                           57.3823       53.8240             6.20%
      0     0       53.0236   182       57.3823       53.8240     5134    6.20%
      0     0       53.1427   147       57.3823      Cuts: 21     5611    6.20%
      0     0       53.4828    89       57.3823      Cuts: 32     6145    6.20%
      0     0       53.7138   101       57.3823      Cuts: 31     6992    6.20%
      0     0       53.9120   187       57.3823      Cuts: 24     7349    6.05%
      0     0       54.7382   176       57.3823      Cuts: 27     8435    4.61%
      0     0       54.7847   261       57.3823      Cuts: 30    10752    1.78%
      0     0       54.8082   270       57.3823       Cuts: 6    10951    1.78%
      0     0        cutoff             57.3823       57.3823    10951    0.00%
Elapsed time = 1.92 sec. (3146.80 ticks, tree = 0.01 MB, solutions = 3)

Clique cuts applied:  2
Implied bound cuts applied:  4
Mixed integer rounding cuts applied:  1
Zero-half cuts applied:  18
Gomory fractional cuts applied:  2

Root node processing (before b&c):
  Real time             =    1.92 sec. (3147.08 ticks)
Parallel b&c, 20 threads:
  Real time             =    0.00 sec. (0.00 ticks)
  Sync time (average)   =    0.00 sec.
  Wait time (average)   =    0.00 sec.
                          ------------
Total (root+branch&cut) =    1.92 sec. (3147.08 ticks)
Feasible solution found!
Truck nodes:
Stage 1 at customer 0 with arrival time is: 0
Stage 1 at customer 0 with departure time is: 0
Stage 2 at customer 10 with arrival time is: 9.91531
Stage 2 at customer 10 with departure time is: 12.9026
Stage 3 at customer 4 with arrival time is: 23.4352
Stage 3 at customer 4 with departure time is: 23.4352
Stage 4 at customer 7 with arrival time is: 30.7839
Stage 4 at customer 7 with departure time is: 31.7839
Stage 5 at customer 6 with arrival time is: 38.4848
Stage 5 at customer 6 with departure time is: 38.4848
Stage 6 at customer 5 with arrival time is: 39.4532
Stage 6 at customer 5 with departure time is: 39.4532
Stage 7 at customer 1 with arrival time is: 41.3814
Stage 7 at customer 1 with departure time is: 42.3814
Stage 8 at customer 8 with arrival time is: 45.7027
Stage 8 at customer 8 with departure time is: 45.7027
Stage 9 at customer 11 with arrival time is: 56.3823
Stage 9 at customer 11 with departure time is: 57.3823
Truck arcs:
Arc 1 connecting 0 and 10 with cost 9.91531 
Arc 2 connecting 10 and 4 with cost 10.5327 
Arc 3 connecting 4 and 7 with cost 7.34864 
Arc 4 connecting 7 and 6 with cost 6.70095 
Arc 5 connecting 6 and 5 with cost 0.968346 
Arc 6 connecting 5 and 1 with cost 1.92825 
Arc 7 connecting 1 and 8 with cost 3.32128 
Arc 8 connecting 8 and 11 with cost 10.6796 
Drone served customers
Drone flies from stage 1 to stage 2
Drone flies from stage 2 to stage 4
Drone flies from stage 7 to stage 9
Drone flies from stage 7 to stage 9 to serve customer 2
Drone flies from stage 2 to stage 4 to serve customer 3
Drone flies from stage 1 to stage 2 to serve customer 9
1
Customer 2 served by drone.
Y_val: 1
W_val: 1
Drone fly from 1 at stage 7 to serve 2 and then fly back to 11 at stage 9. 
Truck travel time from stage 7 to 9 is: 14.0009
Start arc cost: 4.53721, end arc cost: 6.60767. Total drone travel time: 11.1449
Drone arrival time: 53.5263
Truck arrival time: 56.3823
Truck departure time = max(d/a, t/a) plus (sl/sr): 57.3823
1
Customer 3 served by drone.
Y_val: 1
W_val: 1
Drone fly from 10 at stage 2 to serve 3 and then fly back to 7 at stage 4. 
Truck travel time from stage 2 to 4 is: 17.8813
Start arc cost: 6.81733, end arc cost: 9.12274. Total drone travel time: 15.9401
Drone arrival time: 28.8426
Truck arrival time: 30.7839
Truck departure time = max(d/a, t/a) plus (sl/sr): 31.7839
1
Customer 9 served by drone.
Y_val: 1
W_val: 1
Drone fly from 0 at stage 1 to serve 9 and then fly back to 10 at stage 2. 
Truck travel time from stage 1 to 2 is: 9.91531
Start arc cost: 6.83826, end arc cost: 4.06431. Total drone travel time: 10.9026
Drone arrival time: 10.9026
Truck arrival time: 9.91531
Truck departure time = max(d/a, t/a) plus (sl/sr): 12.9026
Done!
-------------------------Re-calculated objective-----------------------
57.3823
------------------------------------------------------------------------
Solve time: 1.921
OBJECTIVE VALUE: 57.3823, NUMBER OF SORTIES: 3.
In write mode
